;; produced by cvc4_16.drv ;;
(set-logic AUFBVFPDTNIRA)
(set-info :source |VC generated by SPARK 2014|)
(set-info :smt-lib-version 2.5)
(set-info :category industrial)
(set-info :status unknown)
;;; generated by SMT-LIB2 driver
;;; SMT-LIB2 driver: bit-vectors, common part
;;; SMT-LIB2: integer arithmetic
(declare-datatypes () ((tuple0 (Tuple0))))
(declare-sort us_private 0)

(declare-fun private__bool_eq (us_private us_private) Bool)

(declare-const us_null_ext__ us_private)

(declare-sort us_type_of_heap 0)

(declare-datatypes ()
((us_type_of_heap__ref
 (mk___type_of_heap__ref (us_type_of_heap__content us_type_of_heap)))))
(declare-sort us_image 0)

(declare-datatypes () ((int__ref (mk_int__ref (int__content Int)))))
(declare-datatypes () ((bool__ref (mk_bool__ref (bool__content Bool)))))
(declare-datatypes () ((real__ref (mk_real__ref (real__content Real)))))
(declare-datatypes ()
((us_private__ref (mk___private__ref (us_private__content us_private)))))
(define-fun int__ref___projection ((a int__ref)) Int (int__content a))

(define-fun bool__ref___projection ((a bool__ref)) Bool (bool__content a))

(define-fun real__ref___projection ((a real__ref)) Real (real__content a))

(define-fun us_private__ref___projection ((a us_private__ref)) us_private
  (us_private__content a))

(declare-sort integer 0)

(define-fun in_range ((x Int)) Bool (and (<= (- 2147483648) x)
                                    (<= x 2147483647)))

(declare-fun attr__ATTRIBUTE_IMAGE (Int) us_image)

(declare-fun attr__ATTRIBUTE_VALUE__pre_check (us_image) Bool)

(declare-fun attr__ATTRIBUTE_VALUE (us_image) Int)

(declare-fun user_eq (integer integer) Bool)

(declare-const dummy integer)

(declare-datatypes ()
((integer__ref (mk_integer__ref (integer__content integer)))))
(define-fun integer__ref___projection ((a integer__ref)) integer (integer__content
                                                                 a))

(define-fun dynamic_invariant ((temp___expr_15 Int) (temp___is_init_12 Bool)
  (temp___skip_constant_13 Bool)
  (temp___do_toplevel_14 Bool)) Bool (=>
                                     (or (= temp___is_init_12 true)
                                     (<= (- 2147483648) 2147483647))
                                     (in_range temp___expr_15)))

(declare-const attr__ATTRIBUTE_ADDRESS Int)

(declare-const attr__ATTRIBUTE_ADDRESS1 Int)

(declare-const attr__ATTRIBUTE_ADDRESS2 Int)

(declare-const attr__ATTRIBUTE_ADDRESS3 Int)

(declare-const attr__ATTRIBUTE_ADDRESS4 Int)

(declare-const attr__ATTRIBUTE_ADDRESS5 Int)

(declare-const attr__ATTRIBUTE_ADDRESS6 Int)

(declare-const x Int)

(declare-const t1 Int)

(declare-const t2 Int)

(declare-const t3 Int)

(declare-const t4 Int)

(declare-const t5 Int)

(declare-const err Int)

(declare-const o Int)

(declare-const o1 Int)

(declare-const result Int)

(declare-const t11 Int)

(declare-const result1 Int)

(declare-const t21 Int)

(declare-const result2 Int)

(declare-const t22 Int)

(declare-const result3 Int)

(declare-const t31 Int)

;; H
  (assert (in_range x))

;; H
  (assert (=> (<= (- 2147483648) 2147483647) (in_range t1)))

;; H
  (assert (=> (<= (- 2147483648) 2147483647) (in_range t2)))

;; H
  (assert (=> (<= (- 2147483648) 2147483647) (in_range t3)))

;; H
  (assert (=> (<= (- 2147483648) 2147483647) (in_range t4)))

;; H
  (assert (=> (<= (- 2147483648) 2147483647) (in_range t5)))

;; H
  (assert (=> (<= (- 2147483648) 2147483647) (in_range err)))

;; H
  (assert (and (= o (+ x x)) (in_range (+ x x))))

;; H
  (assert (= result t1))

;; H
  (assert (= t11 o))

;; H
  (assert (=> (< x t11) (= result1 t2)))

;; H
  (assert (=> (< x t11) (= t21 t11)))

;; H
  (assert (=> (not (< x t11)) (= result2 t2)))

;; H
  (assert (=> (not (< x t11)) (= t22 x)))

;; H
  (assert (=> (not (< x t11)) (= t21 t22)))

;; H
  (assert (and (= o1 (- t21 t11)) (in_range (- t21 t11))))

;; H
  (assert (= result3 t3))

;; H
  (assert (= t31 o1))

(assert
;; WP_parameter_def
 ;; File "cascade.adb", line 3, characters 0-0
  (not (in_range (* 2 t31))))
(check-sat)
(exit)
